VRPTWMS/instances/mip/fuel/Comparison/N4-C_DV100-C_SV30_F6_3_No_1.log

Gurobi 6.0.4 (win64) logging started 06/21/15 19:05:31

Read LP format model from file C:\MT\repository\VRPTWMS\instances\mip\fuel\N4-C_DV100-C_SV30_F6_3_No_1.lp
Reading time = 0.01 seconds
(null): 129 rows, 72 columns, 447 nonzeros
Optimize a model with 129 rows, 72 columns and 447 nonzeros
Model has 64 quadratic constraints
Coefficient statistics:
  Matrix range    [1e+00, 1e+06]
  Objective range [1e+05, 1e+07]
  Bounds range    [1e+00, 1e+06]
  RHS range       [1e+00, 1e+06]
Presolve removed 30 rows and 19 columns
Presolve time: 0.00s
Presolved: 171 rows, 89 columns, 772 nonzeros
Variable types: 36 continuous, 53 integer (38 binary)
Found heuristic solution: objective 3.166650e+07

Root relaxation: objective 1.607764e+07, 17 iterations, 0.00 seconds

    Nodes    |    Current Node    |     Objective Bounds      |     Work
 Expl Unexpl |  Obj  Depth IntInf | Incumbent    BestBd   Gap | It/Node Time

     0     0 1.6078e+07    0    2 3.1667e+07 1.6078e+07  49.2%     -    0s
H    0     0                    2.145520e+07 1.6078e+07  25.1%     -    0s
*    0     0               0    2.120800e+07 2.1208e+07  0.00%     -    0s

Cutting planes:
  Gomory: 1
  Implied bound: 1
  MIR: 1

Explored 0 nodes (29 simplex iterations) in 0.00 seconds
Thread count was 2 (of 4 available processors)

Optimal solution found (tolerance 1.00e-04)
Best objective 2.120800000000e+07, best bound 2.120800000000e+07, gap 0.0%
k_c1	70000.0
k_c2	930000.0
k_c3	20000.0
k_c4	110000.0
k_dN	-0.0
o_1	-0.0
o_2	-0.0
o_3	-0.0
o_4	-0.0
p_1	-0.0
p_2	-0.0
p_3	-0.0
p_4	-0.0
phi_c1	39728.999999999985
phi_c2	47938.0
phi_c3	23569.0
phi_c4	51429.999999999985
phi_d0	60000.0
phi_dN	-0.0
tauD_c1	650000.0
tauD_c2	450000.0
tauD_c3	748025.0
tauD_c4	500000.0
tauD_d0	-0.0
tauD_dN	1000000.0
tauS_c1	-0.0
tauS_c2	13200.0
tauS_c3	-0.0
tauS_c4	-0.0
tauS_d0	-0.0
tauS_dN	276275.0
x_c1_c3	1.0
x_c2_dN	1.0
x_c3_dN	1.0
x_c4_c1	1.0
x_d0_c2	1.0
x_d0_c4	1.0
